nN = 5;
nR = 15;
nH = 1;

a = [[25, 25, 18, 24, 20, 19, 25, 24, 23, 15, 18, 18, 25, 15, 22], [25, 18, 17, 22, 21, 23, 20, 23, 16, 19, 15, 18, 16, 23, 16], [18, 16, 19, 15, 15, 18, 15, 20, 19, 24, 22, 20, 25, 16, 21], [18, 21, 16, 18, 17, 24, 18, 23, 22, 16, 17, 22, 22, 18, 16], [17, 18, 15, 21, 23, 21, 24, 23, 20, 22, 19, 15, 22, 22, 25]];
c = [[[0, 0, 0, 0, 0, 0, 0, 0, 0, 0, 0, 0, 0, 0, 0], [50, 50, 43, 35, 33, 48, 49, 32, 40, 33, 36, 32, 38, 46, 33], [48, 48, 43, 49, 34, 50, 45, 35, 41, 40, 40, 43, 31, 42, 49], [46, 49, 45, 49, 35, 45, 42, 50, 36, 49, 34, 43, 31, 46, 41], [30, 46, 35, 44, 49, 40, 32, 48, 38, 36, 34, 40, 31, 37, 40]], [[0, 0, 0, 0, 0, 0, 0, 0, 0, 0, 0, 0, 0, 0, 0], [0, 0, 0, 0, 0, 0, 0, 0, 0, 0, 0, 0, 0, 0, 0], [48, 31, 46, 31, 44, 41, 34, 33, 36, 38, 47, 44, 35, 48, 46], [30, 42, 49, 40, 32, 40, 44, 32, 49, 47, 30, 35, 43, 34, 32], [35, 35, 37, 46, 30, 31, 40, 50, 36, 42, 31, 31, 50, 37, 48]], [[0, 0, 0, 0, 0, 0, 0, 0, 0, 0, 0, 0, 0, 0, 0], [0, 0, 0, 0, 0, 0, 0, 0, 0, 0, 0, 0, 0, 0, 0], [0, 0, 0, 0, 0, 0, 0, 0, 0, 0, 0, 0, 0, 0, 0], [39, 49, 41, 35, 39, 39, 36, 30, 32, 43, 35, 42, 42, 38, 50], [32, 44, 34, 49, 37, 41, 47, 47, 46, 44, 38, 48, 38, 47, 42]], [[0, 0, 0, 0, 0, 0, 0, 0, 0, 0, 0, 0, 0, 0, 0], [0, 0, 0, 0, 0, 0, 0, 0, 0, 0, 0, 0, 0, 0, 0], [0, 0, 0, 0, 0, 0, 0, 0, 0, 0, 0, 0, 0, 0, 0], [0, 0, 0, 0, 0, 0, 0, 0, 0, 0, 0, 0, 0, 0, 0], [44, 44, 49, 41, 33, 49, 46, 43, 45, 50, 36, 40, 34, 32, 32]], [[0, 0, 0, 0, 0, 0, 0, 0, 0, 0, 0, 0, 0, 0, 0], [0, 0, 0, 0, 0, 0, 0, 0, 0, 0, 0, 0, 0, 0, 0], [0, 0, 0, 0, 0, 0, 0, 0, 0, 0, 0, 0, 0, 0, 0], [0, 0, 0, 0, 0, 0, 0, 0, 0, 0, 0, 0, 0, 0, 0], [0, 0, 0, 0, 0, 0, 0, 0, 0, 0, 0, 0, 0, 0, 0]]];

q = [[[16], [20], [9], [22], [17], [19], [20], [22], [20], [13], [6], [20], [23], [19], [7]], [[12], [22], [18], [18], [6], [13], [17], [17], [17], [14], [20], [12], [17], [14], [22]], [[5], [19], [19], [14], [24], [16], [7], [8], [9], [22], [13], [23], [24], [15], [20]], [[20], [8], [6], [9], [5], [17], [23], [18], [14], [12], [14], [17], [15], [23], [21]], [[6], [6], [24], [24], [8], [7], [5], [25], [21], [18], [12], [20], [20], [7], [12]]];
Q = [[40], [38], [38], [35], [34]];
